Version identifier: 12.10.0.0 | 2019-11-26 | 843d4de
CPXPARAM_WorkMem                                 28672
Tried aggregator 2 times.
Aggregator did 75 substitutions.
Reduced MIP has 243 rows, 270 columns, and 1032 nonzeros.
Reduced MIP has 270 binaries, 0 generals, 0 SOSs, and 0 indicators.
Presolve time = 0,00 sec. (1,04 ticks)
Found incumbent of value 225,000000 after 0,00 sec. (1,71 ticks)
Probing time = 0,00 sec. (0,45 ticks)
Tried aggregator 1 time.
Detecting symmetries...
MIP Presolve eliminated 78 rows and 0 columns.
MIP Presolve added 156 rows and 0 columns.
Reduced MIP has 321 rows, 270 columns, and 1110 nonzeros.
Reduced MIP has 270 binaries, 0 generals, 0 SOSs, and 0 indicators.
Presolve time = 0,00 sec. (1,40 ticks)
Probing time = 0,00 sec. (0,43 ticks)
Clique table members: 732.
MIP emphasis: balance optimality and feasibility.
MIP search method: dynamic search.
Parallel mode: deterministic, using up to 16 threads.
Root relaxation solution time = 0,00 sec. (1,84 ticks)

        Nodes                                         Cuts/
   Node  Left     Objective  IInf  Best Integer    Best Bound    ItCnt     Gap

*     0+    0                          225,0000        0,0000           100,00%
*     0+    0                          138,0000        0,0000           100,00%
      0     0       75,0000   270      138,0000       75,0000      152   45,65%
      0     0       76,6414   270      138,0000       Cuts: 9      182   44,46%
      0     0       77,9273   270      138,0000       Cuts: 6      199   43,53%
      0     0       78,4616   270      138,0000       Cuts: 6      223   43,14%
      0     0       78,4945   270      138,0000      Fract: 2      229   43,12%
      0     0       78,6568   270      138,0000      Fract: 4      249   43,00%
      0     0       79,2570   270      138,0000      Cuts: 30      274   42,57%
*     0+    0                          133,0000       79,2570            40,41%
      0     2       79,2570   268      133,0000       86,1005      274   35,26%
Elapsed time = 0,11 sec. (50,56 ticks, tree = 0,02 MB, solutions = 3)
*   957+  391                          131,0000       89,4515            31,72%
   2415   638      129,0104   109      131,0000      113,8912    56237   13,06%
*  2538   475      integral     0      130,0000      114,7458    84111   11,73%

Cover cuts applied:  401
Flow cuts applied:  5
Mixed integer rounding cuts applied:  10
Zero-half cuts applied:  2
Lift and project cuts applied:  2
Gomory fractional cuts applied:  12

Root node processing (before b&c):
  Real time             =    0,11 sec. (50,28 ticks)
Parallel b&c, 16 threads:
  Real time             =    0,50 sec. (404,73 ticks)
  Sync time (average)   =    0,15 sec.
  Wait time (average)   =    0,00 sec.
                          ------------
Total (root+branch&cut) =    0,61 sec. (455,01 ticks)
